\ENCODING=ISO-8859-1
\Problem name: IloCplex

Maximize
 obj1: - 110 x26 + 120 x27 - 110 x40 + 120 x41 - 110 x54 + 120 x55 - 110 x68
       + 120 x69 - 110 x82 + 120 x83 + 100 x97 + 100 x99 + 100 x101 + 100 x103
       - 120 x104 + 150 x105 - 120 x106 + 150 x107 - 120 x108 + 150 x109
       - 120 x110 + 150 x111 - 120 x112 + 150 x113 - 198.55 x114 - 238.26 x116
       - 277.97 x118 - 317.68 x120 - 357.39 x122 + 100 x124
Subject To
 c1:  0.909090909090909 x1 + 1.11111111111111 x2 + 1.25 x3
      + 1.53846153846154 x4 + 0.666666666666667 x5 <= 200
 c2:  0.909090909090909 x6 + 1.11111111111111 x7 + 1.25 x8
      + 1.53846153846154 x9 + 0.666666666666667 x10 <= 200
 c3:  0.909090909090909 x11 + 1.11111111111111 x12 + 1.25 x13
      + 1.53846153846154 x14 + 0.666666666666667 x15 <= 200
 c4:  0.909090909090909 x16 + 1.11111111111111 x17 + 1.25 x18
      + 1.53846153846154 x19 + 0.666666666666667 x20 <= 200
 c5:  0.909090909090909 x21 + 1.11111111111111 x22 + 1.25 x23
      + 1.53846153846154 x24 + 0.666666666666667 x25 <= 200
 c6:  x1 + x2 + x3 + x4 + x26 - x27 - 0.8 x28 - 0.8 x29 - 0.8 x30 - 0.8 x31
      - 0.8 x32 - 0.8 x33 - 0.8 x34 - 0.8 x35 - 0.8 x36 - 0.8 x37 - 0.8 x38
      - 0.8 x39  = 0
 c7:  x6 + x7 + x8 + x9 + x40 - x41 - 0.8 x42 - 0.8 x43 - 0.8 x44 - 0.8 x45
      - 0.8 x46 - 0.8 x47 - 0.8 x48 - 0.8 x49 - 0.8 x50 - 0.8 x51 - 0.8 x52
      - 0.8 x53  = 0
 c8:  x11 + x12 + x13 + x14 + x54 - x55 - 0.8 x56 - 0.8 x57 - 0.8 x58 - 0.8 x59
      - 0.8 x60 - 0.8 x61 - 0.8 x62 - 0.8 x63 - 0.8 x64 - 0.8 x65 - 0.8 x66
      - 0.8 x67  = 0
 c9:  x16 + x17 + x18 + x19 + x68 - x69 - 0.8 x70 - 0.8 x71 - 0.8 x72 - 0.8 x73
      - 0.8 x74 - 0.8 x75 - 0.8 x76 - 0.8 x77 - 0.8 x78 - 0.8 x79 - 0.8 x80
      - 0.8 x81  = 0
 c10: x21 + x22 + x23 + x24 + x82 - x83 - 0.8 x84 - 0.8 x85 - 0.8 x86 - 0.8 x87
      - 0.8 x88 - 0.8 x89 - 0.8 x90 - 0.8 x91 - 0.8 x92 - 0.8 x93 - 0.8 x94
      - 0.8 x95  = 0
 c11: x28  = 10
 c12: x29  = 20
 c13: x30  = 15
 c14: x31  = 12
 c15: x32  = 10
 c16: x33  = 8
 c17: x34  = 6
 c18: x35  = 5
 c19: x36  = 4
 c20: x37  = 3
 c21: x38  = 2
 c22: x39  = 1
 c23: x42 - 0.95 x96  = 0
 c24: - 0.98 x28 + x43  = 0
 c25: - 0.98 x29 + x44  = 0
 c26: - 0.98 x30 + x45  = 0
 c27: - 0.98 x31 + x46  = 0
 c28: - 0.98 x32 + x47  = 0
 c29: - 0.98 x33 + x48  = 0
 c30: - 0.98 x34 + x49  = 0
 c31: - 0.98 x35 + x50  = 0
 c32: - 0.98 x36 + x51  = 0
 c33: - 0.98 x37 + x52  = 0
 c34: - 0.98 x38 + x53  = 0
 c35: - x96 + x97 <= 0
 c36: x56 - 0.95 x98  = 0
 c37: - 0.98 x42 + x57  = 0
 c38: - 0.98 x43 + x58  = 0
 c39: - 0.98 x44 + x59  = 0
 c40: - 0.98 x45 + x60  = 0
 c41: - 0.98 x46 + x61  = 0
 c42: - 0.98 x47 + x62  = 0
 c43: - 0.98 x48 + x63  = 0
 c44: - 0.98 x49 + x64  = 0
 c45: - 0.98 x50 + x65  = 0
 c46: - 0.98 x51 + x66  = 0
 c47: - 0.98 x52 + x67  = 0
 c48: - x98 + x99 <= 0
 c49: x70 - 0.95 x100  = 0
 c50: - 0.98 x56 + x71  = 0
 c51: - 0.98 x57 + x72  = 0
 c52: - 0.98 x58 + x73  = 0
 c53: - 0.98 x59 + x74  = 0
 c54: - 0.98 x60 + x75  = 0
 c55: - 0.98 x61 + x76  = 0
 c56: - 0.98 x62 + x77  = 0
 c57: - 0.98 x63 + x78  = 0
 c58: - 0.98 x64 + x79  = 0
 c59: - 0.98 x65 + x80  = 0
 c60: - 0.98 x66 + x81  = 0
 c61: - x100 + x101 <= 0
 c62: x84 - 0.95 x102  = 0
 c63: - 0.98 x70 + x85  = 0
 c64: - 0.98 x71 + x86  = 0
 c65: - 0.98 x72 + x87  = 0
 c66: - 0.98 x73 + x88  = 0
 c67: - 0.98 x74 + x89  = 0
 c68: - 0.98 x75 + x90  = 0
 c69: - 0.98 x76 + x91  = 0
 c70: - 0.98 x77 + x92  = 0
 c71: - 0.98 x78 + x93  = 0
 c72: - 0.98 x79 + x94  = 0
 c73: - 0.98 x80 + x95  = 0
 c74: - x102 + x103 <= 0
 c75: x1 + x2 + x3 + x4 + x26 - x27 >= 0
 c76: x5 + x104 - x105 >= 0
 c77: x6 + x7 + x8 + x9 + x40 - x41 >= 0
 c78: x10 + x106 - x107 >= 0
 c79: x11 + x12 + x13 + x14 + x54 - x55 >= 0
 c80: x15 + x108 - x109 >= 0
 c81: x16 + x17 + x18 + x19 + x68 - x69 >= 0
 c82: x20 + x110 - x111 >= 0
 c83: x21 + x22 + x23 + x24 + x82 - x83 >= 0
 c84: x25 + x112 - x113 >= 0
 c85: x114 <= 50
 c86: x115 <= 20
 c87: x116 <= 50
 c88: x117 <= 20
 c89: x118 <= 50
 c90: x119 <= 20
 c91: x120 <= 50
 c92: x121 <= 20
 c93: x122 <= 50
 c94: x123 <= 20
End
